c colouring generated by benchmark framework
p edge 211 3541
v 1 29
v 2 3
v 3 18
v 4 19
v 5 16
v 6 5
v 7 21
v 8 10
v 9 14
v 10 4
v 11 15
v 12 22
v 13 28
v 14 13
v 15 27
v 16 12
v 17 13
v 18 8
v 19 15
v 20 29
v 21 3
v 22 9
v 23 2
v 24 23
v 25 25
v 26 7
v 27 12
v 28 4
v 29 6
v 30 18
v 31 26
v 32 27
v 33 8
v 34 26
v 35 1
v 36 23
v 37 21
v 38 12
v 39 19
v 40 11
v 41 7
v 42 21
v 43 25
v 44 4
v 45 20
v 46 11
v 47 25
v 48 11
v 49 17
v 50 16
v 51 6
v 52 3
v 53 22
v 54 24
v 55 26
v 56 8
v 57 26
v 58 14
v 59 1
v 60 2
v 61 9
v 62 11
v 63 19
v 64 16
v 65 5
v 66 17
v 67 21
v 68 16
v 69 14
v 70 1
v 71 17
v 72 20
v 73 20
v 74 9
v 75 26
v 76 11
v 77 8
v 78 24
v 79 20
v 80 11
v 81 19
v 82 26
v 83 1
v 84 10
v 85 24
v 86 13
v 87 0
v 88 1
v 89 7
v 90 23
v 91 6
v 92 11
v 93 2
v 94 13
v 95 28
v 96 17
v 97 21
v 98 5
v 99 2
v 100 22
v 101 1
v 102 25
v 103 28
v 104 25
v 105 7
v 106 26
v 107 26
v 108 1
v 109 17
v 110 26
v 111 0
v 112 2
v 113 10
v 114 13
v 115 18
v 116 6
v 117 1
v 118 5
v 119 6
v 120 26
v 121 17
v 122 17
v 123 24
v 124 1
v 125 1
v 126 26
v 127 26
v 128 8
v 129 8
v 130 25
v 131 25
v 132 20
v 133 11
v 134 2
v 135 1
v 136 26
v 137 24
v 138 6
v 139 17
v 140 10
v 141 1
v 142 28
v 143 17
v 144 24
v 145 17
v 146 2
v 147 2
v 148 26
v 149 21
v 150 6
v 151 2
v 152 6
v 153 14
v 154 2
v 155 8
v 156 9
v 157 3
v 158 27
v 159 21
v 160 13
v 161 23
v 162 2
v 163 17
v 164 17
v 165 17
v 166 2
v 167 11
v 168 26
v 169 22
v 170 26
v 171 8
v 172 17
v 173 11
v 174 8
v 175 2
v 176 8
v 177 11
v 178 8
v 179 8
v 180 8
v 181 2
v 182 2
v 183 20
v 184 8
v 185 11
v 186 20
v 187 11
v 188 9
v 189 4
v 190 2
v 191 17
v 192 8
v 193 26
v 194 11
v 195 11
v 196 0
v 197 11
v 198 0
v 199 11
v 200 11
v 201 2
v 202 2
v 203 5
v 204 2
v 205 2
v 206 2
v 207 11
v 208 11
v 209 25
v 210 1
v 211 2
